0 0 0 0
0 1 2 0
0 2 0 0
0 3 0 0
0 4 1 9
0 5 0 21
0 6 0 6
0 7 0 23
0 8 1 8
0 9 2 11
0 10 0 23
0 11 1 31
0 12 2 11
0 13 0 25
0 14 0 27
0 15 0 9
0 16 1 21
0 17 1 18
0 18 2 11
0 19 0 21
0 20 0 27
0 21 0 34
0 22 0 27
0 23 0 31
0 24 1 31
0 25 0 36
0 26 0 36
0 27 0 40
0 28 1 33
0 29 0 42
0 30 0 40
0 31 0 49
